\ Generated by MPModelProtoExporter
\   Name             : 
\   Format           : Free
\   Constraints      : 94
\   Variables        : 13
\     Binary         : 0
\     Integer        : 0
\     Continuous     : 13
Maximize
 Obj: -1 _1 -1 _2 -2 _3 +1 _0IT_1 +1 _0K_2 +1 _0MI_IDX_1_3 +1 _0MK_2_3 +1 _0T_3 
Subject to
 Mono_Ineq.__H(0IT_1)____H(0IT): -1 _0IT +1 _0IT_1  >= 0
 Mono_Ineq.__H(0IT_1)____H(1): -1 _1 +1 _0IT_1  >= 0
 Additivity_Ineq.__H(0IT_1)____H(0IT)___H(1): -1 _1 -1 _0IT +1 _0IT_1  <= 0
 Mono_Ineq.__H(0K_2)____H(0K): -1 _0K +1 _0K_2  >= 0
 Mono_Ineq.__H(0K_2)____H(2): -1 _2 +1 _0K_2  >= 0
 Additivity_Ineq.__H(0K_2)____H(0K)___H(2): -1 _2 -1 _0K +1 _0K_2  <= 0
 Mono_Ineq.__H(0MI_IDX_1_3)____H(0MI_IDX): -1 _0MI_IDX +1 _0MI_IDX_1_3  >= 0
 Mono_Ineq.__H(0MI_IDX_1_3)____H(3): -1 _3 +1 _0MI_IDX_1_3  >= 0
 Mono_Ineq.__H(0MI_IDX_1_3)____H(1): -1 _1 +1 _0MI_IDX_1_3  >= 0
 Additivity_Ineq.__H(0MI_IDX_1_3)____H(0MI_IDX)___H(3)___H(1): -1 _1 -1 _3 -1 _0MI_IDX +1 _0MI_IDX_1_3  <= 0
 Mono_Ineq.__H(0MK_2_3)____H(0MK): -1 _0MK +1 _0MK_2_3  >= 0
 Mono_Ineq.__H(0MK_2_3)____H(3): -1 _3 +1 _0MK_2_3  >= 0
 Mono_Ineq.__H(0MK_2_3)____H(2): -1 _2 +1 _0MK_2_3  >= 0
 Additivity_Ineq.__H(0MK_2_3)____H(0MK)___H(3)___H(2): -1 _2 -1 _3 -1 _0MK +1 _0MK_2_3  <= 0
 Mono_Ineq.__H(0T_3)____H(0T): -1 _0T +1 _0T_3  >= 0
 Mono_Ineq.__H(0T_3)____H(3): -1 _3 +1 _0T_3  >= 0
 Additivity_Ineq.__H(0T_3)____H(0T)___H(3): -1 _3 -1 _0T +1 _0T_3  <= 0
 Statistics_Ineq._1__1___h(0IT_1)___0___h(1)____1___log2(8.0)_|_1_|_IT.ID: +1 _0IT_1  <= 3
 Statistics_Ineq._2__2___h(0IT_1)___1___h(1)____2___log2(2.8284271247461903)_|_2_|_IT.ID: -1 _1 +2 _0IT_1  <= 3
 Statistics_Ineq._3__3___h(0IT_1)___2___h(1)____3___log2(2.0)_|_3_|_IT.ID: -2 _1 +3 _0IT_1  <= 3
 Statistics_Ineq._4__4___h(0IT_1)___3___h(1)____4___log2(1.681792830507429)_|_4_|_IT.ID: -3 _1 +4 _0IT_1  <= 3
 Statistics_Ineq._5__5___h(0IT_1)___4___h(1)____5___log2(1.5157165665103982)_|_5_|_IT.ID: -4 _1 +5 _0IT_1  <= 3
 Statistics_Ineq._6__6___h(0IT_1)___5___h(1)____6___log2(1.414213562373095)_|_6_|_IT.ID: -5 _1 +6 _0IT_1  <= 3
 Statistics_Ineq._7__7___h(0IT_1)___6___h(1)____7___log2(1.3459001926323562)_|_7_|_IT.ID: -6 _1 +7 _0IT_1  <= 3
 Statistics_Ineq._8__8___h(0IT_1)___7___h(1)____8___log2(1.2968395546510096)_|_8_|_IT.ID: -7 _1 +8 _0IT_1  <= 3
 Statistics_Ineq._9__9___h(0IT_1)___8___h(1)____9___log2(1.2599210498948732)_|_9_|_IT.ID: -8 _1 +9 _0IT_1  <= 3
 Statistics_Ineq._10__10___h(0IT_1)___9___h(1)____10___log2(1.2311444133449163)_|_10_|_IT.ID: -9 _1 +10 _0IT_1  <= 3
 Statistics_Ineq._11__h(0IT_1)___h(1)____log2(1.0)_|_inf_|_IT.ID: -1 _1 +1 _0IT_1  <= 0
 Statistics_Ineq._12__1___h(0K_2)___0___h(2)____1___log2(134170.0)_|_1_|_K.ID: +1 _0K_2  <= 17.0337
 Statistics_Ineq._13__2___h(0K_2)___1___h(2)____2___log2(366.29223305988893)_|_2_|_K.ID: -1 _2 +2 _0K_2  <= 17.0337
 Statistics_Ineq._14__3___h(0K_2)___2___h(2)____3___log2(51.19393035144834)_|_3_|_K.ID: -2 _2 +3 _0K_2  <= 17.0337
 Statistics_Ineq._15__4___h(0K_2)___3___h(2)____4___log2(19.138762579119085)_|_4_|_K.ID: -3 _2 +4 _0K_2  <= 17.0337
 Statistics_Ineq._16__5___h(0K_2)___4___h(2)____5___log2(10.605498428686793)_|_5_|_K.ID: -4 _2 +5 _0K_2  <= 17.0337
 Statistics_Ineq._17__6___h(0K_2)___5___h(2)____6___log2(7.154993385842389)_|_6_|_K.ID: -5 _2 +6 _0K_2  <= 17.0337
 Statistics_Ineq._18__7___h(0K_2)___6___h(2)____7___log2(5.401597291274521)_|_7_|_K.ID: -6 _2 +7 _0K_2  <= 17.0337
 Statistics_Ineq._19__8___h(0K_2)___7___h(2)____8___log2(4.374787146721436)_|_8_|_K.ID: -7 _2 +8 _0K_2  <= 17.0337
 Statistics_Ineq._20__9___h(0K_2)___8___h(2)____9___log2(3.713124327690797)_|_9_|_K.ID: -8 _2 +9 _0K_2  <= 17.0337
 Statistics_Ineq._21__10___h(0K_2)___9___h(2)____10___log2(3.2566084242178692)_|_10_|_K.ID: -9 _2 +10 _0K_2  <= 17.0337
 Statistics_Ineq._22__h(0K_2)___h(2)____log2(1.0)_|_inf_|_K.ID: -1 _2 +1 _0K_2  <= 0
 Statistics_Ineq._23__1___h(0MI_IDX_1_3)___0___h(3)____1___log2(1380035.0)_|_1_|_MI_IDX.MOVIE_ID: +1 _0MI_IDX_1_3  <= 20.3963
 Statistics_Ineq._24__2___h(0MI_IDX_1_3)___1___h(3)____2___log2(2034.9803438854146)_|_2_|_MI_IDX.MOVIE_ID: -1 _3 +2 _0MI_IDX_1_3  <= 21.9816
 Statistics_Ineq._25__3___h(0MI_IDX_1_3)___2___h(3)____3___log2(231.63047471014258)_|_3_|_MI_IDX.MOVIE_ID: -2 _3 +3 _0MI_IDX_1_3  <= 23.567
 Statistics_Ineq._26__4___h(0MI_IDX_1_3)___3___h(3)____4___log2(78.14937952029435)_|_4_|_MI_IDX.MOVIE_ID: -3 _3 +4 _0MI_IDX_1_3  <= 25.1527
 Statistics_Ineq._27__5___h(0MI_IDX_1_3)___4___h(3)____5___log2(40.72080256273645)_|_5_|_MI_IDX.MOVIE_ID: -4 _3 +5 _0MI_IDX_1_3  <= 26.7385
 Statistics_Ineq._28__6___h(0MI_IDX_1_3)___5___h(3)____6___log2(26.368848575018564)_|_6_|_MI_IDX.MOVIE_ID: -5 _3 +6 _0MI_IDX_1_3  <= 28.3246
 Statistics_Ineq._29__7___h(0MI_IDX_1_3)___6___h(3)____7___log2(19.333202674531634)_|_7_|_MI_IDX.MOVIE_ID: -6 _3 +7 _0MI_IDX_1_3  <= 29.9111
 Statistics_Ineq._30__8___h(0MI_IDX_1_3)___7___h(3)____8___log2(15.319065986841762)_|_8_|_MI_IDX.MOVIE_ID: -7 _3 +8 _0MI_IDX_1_3  <= 31.4981
 Statistics_Ineq._31__9___h(0MI_IDX_1_3)___8___h(3)____9___log2(12.783317244944898)_|_9_|_MI_IDX.MOVIE_ID: -8 _3 +9 _0MI_IDX_1_3  <= 33.0857
 Statistics_Ineq._32__10___h(0MI_IDX_1_3)___9___h(3)____10___log2(11.061128564875332)_|_10_|_MI_IDX.MOVIE_ID: -9 _3 +10 _0MI_IDX_1_3  <= 34.6743
 Statistics_Ineq._33__h(0MI_IDX_1_3)___h(3)____log2(4.0)_|_inf_|_MI_IDX.MOVIE_ID: -1 _3 +1 _0MI_IDX_1_3  <= 2
 Statistics_Ineq._34__1___h(0MI_IDX_1_3)___0___h(1)____1___log2(1380035.0)_|_1_|_MI_IDX.INFO_TYPE_ID: +1 _0MI_IDX_1_3  <= 20.3963
 Statistics_Ineq._35__2___h(0MI_IDX_1_3)___1___h(1)____2___log2(796613.5069624416)_|_2_|_MI_IDX.INFO_TYPE_ID: -1 _1 +2 _0MI_IDX_1_3  <= 39.207
 Statistics_Ineq._36__3___h(0MI_IDX_1_3)___2___h(1)____3___log2(663326.6336354722)_|_3_|_MI_IDX.INFO_TYPE_ID: -2 _1 +3 _0MI_IDX_1_3  <= 58.0181
 Statistics_Ineq._37__4___h(0MI_IDX_1_3)___3___h(1)____4___log2(605295.3404071796)_|_4_|_MI_IDX.INFO_TYPE_ID: -3 _1 +4 _0MI_IDX_1_3  <= 76.8291
 Statistics_Ineq._38__5___h(0MI_IDX_1_3)___4___h(1)____5___log2(572942.8024026672)_|_5_|_MI_IDX.INFO_TYPE_ID: -4 _1 +5 _0MI_IDX_1_3  <= 95.6402
 Statistics_Ineq._39__6___h(0MI_IDX_1_3)___5___h(1)____6___log2(552340.9291093226)_|_6_|_MI_IDX.INFO_TYPE_ID: -5 _1 +6 _0MI_IDX_1_3  <= 114.451
 Statistics_Ineq._40__7___h(0MI_IDX_1_3)___6___h(1)____7___log2(538080.4290580386)_|_7_|_MI_IDX.INFO_TYPE_ID: -6 _1 +7 _0MI_IDX_1_3  <= 133.262
 Statistics_Ineq._41__8___h(0MI_IDX_1_3)___7___h(1)____8___log2(527627.1974005605)_|_8_|_MI_IDX.INFO_TYPE_ID: -7 _1 +8 _0MI_IDX_1_3  <= 152.073
 Statistics_Ineq._42__9___h(0MI_IDX_1_3)___8___h(1)____9___log2(519637.5060761928)_|_9_|_MI_IDX.INFO_TYPE_ID: -8 _1 +9 _0MI_IDX_1_3  <= 170.884
 Statistics_Ineq._43__10___h(0MI_IDX_1_3)___9___h(1)____10___log2(513332.9508175439)_|_10_|_MI_IDX.INFO_TYPE_ID: -9 _1 +10 _0MI_IDX_1_3  <= 189.695
 Statistics_Ineq._44__h(0MI_IDX_1_3)___h(1)____log2(459925.0)_|_inf_|_MI_IDX.INFO_TYPE_ID: -1 _1 +1 _0MI_IDX_1_3  <= 18.811
 Statistics_Ineq._45__1___h(0MK_2_3)___0___h(3)____1___log2(4523930.0)_|_1_|_MK.MOVIE_ID: +1 _0MK_2_3  <= 22.1091
 Statistics_Ineq._46__2___h(0MK_2_3)___1___h(3)____2___log2(16185.9873965106)_|_2_|_MK.MOVIE_ID: -1 _3 +2 _0MK_2_3  <= 27.9649
 Statistics_Ineq._47__3___h(0MK_2_3)___2___h(3)____3___log2(3343.8264818119123)_|_3_|_MK.MOVIE_ID: -2 _3 +3 _0MK_2_3  <= 35.1219
 Statistics_Ineq._48__4___h(0MK_2_3)___3___h(3)____4___log2(1671.5408115873324)_|_4_|_MK.MOVIE_ID: -3 _3 +4 _0MK_2_3  <= 42.8279
 Statistics_Ineq._49__5___h(0MK_2_3)___4___h(3)____5___log2(1148.4788492748567)_|_5_|_MK.MOVIE_ID: -4 _3 +5 _0MK_2_3  <= 50.8275
 Statistics_Ineq._50__6___h(0MK_2_3)___5___h(3)____6___log2(914.941738694339)_|_6_|_MK.MOVIE_ID: -5 _3 +6 _0MK_2_3  <= 59.0252
 Statistics_Ineq._51__7___h(0MK_2_3)___6___h(3)____7___log2(789.6812830724535)_|_7_|_MK.MOVIE_ID: -6 _3 +7 _0MK_2_3  <= 67.3759
 Statistics_Ineq._52__8___h(0MK_2_3)___7___h(3)____8___log2(714.8129944782834)_|_8_|_MK.MOVIE_ID: -7 _3 +8 _0MK_2_3  <= 75.8514
 Statistics_Ineq._53__9___h(0MK_2_3)___8___h(3)____9___log2(666.8052492847414)_|_9_|_MK.MOVIE_ID: -8 _3 +9 _0MK_2_3  <= 84.4301
 Statistics_Ineq._54__10___h(0MK_2_3)___9___h(3)____10___log2(634.4708714390166)_|_10_|_MK.MOVIE_ID: -9 _3 +10 _0MK_2_3  <= 93.0941
 Statistics_Ineq._55__h(0MK_2_3)___h(3)____log2(540.0)_|_inf_|_MK.MOVIE_ID: -1 _3 +1 _0MK_2_3  <= 9.07682
 Statistics_Ineq._56__1___h(0MK_2_3)___0___h(2)____1___log2(4523930.0)_|_1_|_MK.KEYWORD_ID: +1 _0MK_2_3  <= 22.1091
 Statistics_Ineq._57__2___h(0MK_2_3)___1___h(2)____2___log2(142540.5972767057)_|_2_|_MK.KEYWORD_ID: -1 _2 +2 _0MK_2_3  <= 34.242
 Statistics_Ineq._58__3___h(0MK_2_3)___2___h(2)____3___log2(91933.95257125433)_|_3_|_MK.KEYWORD_ID: -2 _2 +3 _0MK_2_3  <= 49.4649
 Statistics_Ineq._59__4___h(0MK_2_3)___3___h(2)____4___log2(82003.06320560009)_|_4_|_MK.KEYWORD_ID: -3 _2 +4 _0MK_2_3  <= 65.2936
 Statistics_Ineq._60__5___h(0MK_2_3)___4___h(2)____5___log2(78043.67590316865)_|_5_|_MK.KEYWORD_ID: -4 _2 +5 _0MK_2_3  <= 81.26
 Statistics_Ineq._61__6___h(0MK_2_3)___5___h(2)____6___log2(76018.0546797557)_|_6_|_MK.KEYWORD_ID: -5 _2 +6 _0MK_2_3  <= 97.2843
 Statistics_Ineq._62__7___h(0MK_2_3)___6___h(2)____7___log2(74849.51552507188)_|_7_|_MK.KEYWORD_ID: -6 _2 +7 _0MK_2_3  <= 113.342
 Statistics_Ineq._63__8___h(0MK_2_3)___7___h(2)____8___log2(74123.73792740938)_|_8_|_MK.KEYWORD_ID: -7 _2 +8 _0MK_2_3  <= 129.421
 Statistics_Ineq._64__9___h(0MK_2_3)___8___h(2)____9___log2(73649.49002095767)_|_9_|_MK.KEYWORD_ID: -8 _2 +9 _0MK_2_3  <= 145.515
 Statistics_Ineq._65__10___h(0MK_2_3)___9___h(2)____10___log2(73328.0635960675)_|_10_|_MK.KEYWORD_ID: -9 _2 +10 _0MK_2_3  <= 161.621
 Statistics_Ineq._66__h(0MK_2_3)___h(2)____log2(72496.0)_|_inf_|_MK.KEYWORD_ID: -1 _2 +1 _0MK_2_3  <= 16.1456
 Statistics_Ineq._67__1___h(0T_3)___0___h(3)____1___log2(524288.0)_|_1_|_T.ID: +1 _0T_3  <= 19
 Statistics_Ineq._68__2___h(0T_3)___1___h(3)____2___log2(724.0773439350247)_|_2_|_T.ID: -1 _3 +2 _0T_3  <= 19
 Statistics_Ineq._69__3___h(0T_3)___2___h(3)____3___log2(80.63494719327186)_|_3_|_T.ID: -2 _3 +3 _0T_3  <= 19
 Statistics_Ineq._70__4___h(0T_3)___3___h(3)____4___log2(26.908685288118864)_|_4_|_T.ID: -3 _3 +4 _0T_3  <= 19
 Statistics_Ineq._71__5___h(0T_3)___4___h(3)____5___log2(13.928809012737988)_|_5_|_T.ID: -4 _3 +5 _0T_3  <= 19
 Statistics_Ineq._72__6___h(0T_3)___5___h(3)____6___log2(8.979696386474982)_|_6_|_T.ID: -5 _3 +6 _0T_3  <= 19
 Statistics_Ineq._73__7___h(0T_3)___6___h(3)____7___log2(6.562682848061103)_|_7_|_T.ID: -6 _3 +7 _0T_3  <= 19
 Statistics_Ineq._74__8___h(0T_3)___7___h(3)____8___log2(5.187358218604039)_|_8_|_T.ID: -7 _3 +8 _0T_3  <= 19
 Statistics_Ineq._75__9___h(0T_3)___8___h(3)____9___log2(4.320238955569224)_|_9_|_T.ID: -8 _3 +9 _0T_3  <= 19
 Statistics_Ineq._76__10___h(0T_3)___9___h(3)____10___log2(3.73213196614723)_|_10_|_T.ID: -9 _3 +10 _0T_3  <= 19
 Statistics_Ineq._77__h(0T_3)___h(3)____log2(1.0)_|_inf_|_T.ID: -1 _3 +1 _0T_3  <= 0
Bounds
 0 <= _1
 0 <= _2
 0 <= _3
 0 <= _0IT
 0 <= _0IT_1
 0 <= _0K
 0 <= _0K_2
 0 <= _0MI_IDX
 0 <= _0MI_IDX_1_3
 0 <= _0MK
 0 <= _0MK_2_3
 0 <= _0T
 0 <= _0T_3
End
